objective value:                       1.144502138615
x(0,11,0)                                           1 	(obj:0)
x(1,0,0)                                            1 	(obj:0)
x(1,9,1)                                            1 	(obj:0)
x(2,13,2)                                           1 	(obj:0)
x(3,4,2)                                            1 	(obj:0)
x(4,8,2)                                            1 	(obj:0)
x(8,2,2)                                            1 	(obj:0)
x(9,11,1)                                           1 	(obj:0)
x(11,1,0)                                           1 	(obj:0)
x(11,1,1)                                           1 	(obj:0)
x(13,3,2)                                           1 	(obj:0)
xc(0,5)                                             1 	(obj:0)
xc(2,11)                                            1 	(obj:0)
xc(3,8)                                             1 	(obj:0)
xc(4,11)                                            1 	(obj:0)
xc(8,3)                                             1 	(obj:0)
u(0,0)                                0.5656800079952 	(obj:0)
u(0,1)                                 1.144502138615 	(obj:0)
u(0,2)                                 1.144502138615 	(obj:0)
u(1,2)                                 1.144502138615 	(obj:0)
u(2,0)                                 1.144502138615 	(obj:0)
u(2,2)                              0.580371908063396 	(obj:0)
u(3,0)                                 1.144502138615 	(obj:0)
u(4,1)                                 1.144502138615 	(obj:0)
u(4,2)                             0.0857596424753986 	(obj:0)
u(5,0)                                 1.144502138615 	(obj:0)
u(7,0)                                 1.144502138615 	(obj:0)
u(7,2)                                 1.144502138615 	(obj:0)
u(8,0)                                 1.144502138615 	(obj:0)
u(8,2)                              0.274174374966197 	(obj:0)
u(9,1)                                0.5722510693075 	(obj:0)
u(10,0)                                1.144502138615 	(obj:0)
u(10,1)                                1.144502138615 	(obj:0)
u(10,2)                                1.144502138615 	(obj:0)
u(11,0)                                1.144502138615 	(obj:0)
u(11,1)                                1.144502138615 	(obj:0)
u(11,2)                                1.144502138615 	(obj:0)
u(12,0)                                1.144502138615 	(obj:0)
u(12,1)                                1.144502138615 	(obj:0)
u(12,2)                                1.144502138615 	(obj:0)
u(13,0)                                1.144502138615 	(obj:0)
u(13,1)                                1.144502138615 	(obj:0)
u(13,2)                                1.144502138615 	(obj:0)
u(14,0)                                1.144502138615 	(obj:0)
u(14,1)                                1.144502138615 	(obj:0)
u(14,2)                                1.144502138615 	(obj:0)
u(15,0)                                1.144502138615 	(obj:0)
u(15,1)                                1.144502138615 	(obj:0)
u(15,2)                                1.144502138615 	(obj:0)
u(16,0)                                1.144502138615 	(obj:0)
u(16,1)                                1.144502138615 	(obj:0)
u(16,2)                                1.144502138615 	(obj:0)
u(17,0)                                1.144502138615 	(obj:0)
u(17,1)                                1.144502138615 	(obj:0)
u(17,2)                                1.144502138615 	(obj:0)
u(18,0)                                1.144502138615 	(obj:0)
u(18,1)                                1.144502138615 	(obj:0)
u(18,2)                                1.144502138615 	(obj:0)
u(19,0)                                1.144502138615 	(obj:0)
u(19,1)                                1.144502138615 	(obj:0)
u(19,2)                                1.144502138615 	(obj:0)
f(0,11,0)                                           1 	(obj:0)
f(1,9,0)                                            1 	(obj:0)
f(1,9,1)                                            1 	(obj:0)
f(1,9,2)                                            1 	(obj:0)
f(1,9,3)                                            1 	(obj:0)
f(1,9,4)                                            1 	(obj:0)
f(2,11,2)                                           1 	(obj:0)
f(2,11,3)                                           1 	(obj:0)
f(2,13,0)                                           1 	(obj:0)
f(2,13,1)                                           1 	(obj:0)
f(3,4,1)                                            1 	(obj:0)
f(3,4,3)                                            1 	(obj:0)
f(3,8,0)                                            1 	(obj:0)
f(4,8,1)                                            1 	(obj:0)
f(4,8,3)                                            1 	(obj:0)
f(4,11,4)                                           1 	(obj:0)
f(8,2,0)                                            1 	(obj:0)
f(8,2,1)                                            1 	(obj:0)
f(8,2,3)                                            1 	(obj:0)
f(11,1,0)                                           1 	(obj:0)
f(11,1,2)                                           1 	(obj:0)
f(11,1,3)                                           1 	(obj:0)
f(11,1,4)                                           1 	(obj:0)
f(13,3,0)                                           1 	(obj:0)
f(13,3,1)                                           1 	(obj:0)
z_r(0,)                                1.144502138615 	(obj:0)
z_r(1,)                                1.144502138615 	(obj:0)
z_r(2,)                                1.144502138615 	(obj:0)
z                                      1.144502138615 	(obj:1)
